NAME 
OBJSENSE MAX
ROWS
 N  OBJ
 L  packing[0]
 L  packing[1]
 L  packing[2]
 L  packing[3]
 L  packing[4]
 L  packing[5]
 L  packing[6]
 L  packing[7]
 L  packing[8]
 L  packing[9]
 L  packing[10]
 L  packing[11]
 L  packing[12]
 L  packing[13]
 L  packing[14]
 L  packing[15]
 L  packing[16]
 L  packing[17]
 L  packing[18]
 L  packing[19]
 L  packing[20]
 L  packing[21]
 L  packing[22]
 L  packing[23]
 L  packing[24]
 L  packing[25]
 L  packing[26]
 L  packing[27]
 L  packing[28]
 L  packing[29]
 L  packing[30]
 L  packing[31]
 L  packing[32]
 L  packing[33]
 L  packing[34]
 L  packing[35]
 L  packing[36]
 L  packing[37]
 L  packing[38]
 L  packing[39]
 L  packing[40]
 L  packing[41]
 L  packing[42]
 L  packing[43]
 L  packing[44]
 L  packing[45]
 L  packing[46]
 L  packing[47]
 L  packing[48]
 L  packing[49]
 L  R53     
COLUMNS
    MARKER    'MARKER'                 'INTORG'
    x[1]      OBJ       81
    x[1]      packing[1]  38
    x[1]      packing[2]  13
    x[1]      packing[3]  166
    x[1]      packing[4]  119
    x[1]      packing[6]  114
    x[1]      packing[7]  21
    x[1]      packing[8]  153
    x[1]      packing[9]  174
    x[1]      packing[10]  112
    x[1]      packing[11]  1
    x[1]      packing[12]  85
    x[1]      packing[13]  101
    x[1]      packing[14]  45
    x[1]      packing[15]  44
    x[1]      packing[16]  115
    x[1]      packing[18]  174
    x[1]      packing[21]  62
    x[1]      packing[22]  118
    x[1]      packing[24]  122
    x[1]      packing[26]  92
    x[1]      packing[28]  96
    x[1]      packing[29]  10
    x[1]      packing[31]  118
    x[1]      packing[32]  113
    x[1]      packing[33]  166
    x[1]      packing[34]  122
    x[1]      packing[35]  184
    x[1]      packing[36]  170
    x[1]      packing[38]  186
    x[1]      packing[39]  118
    x[1]      packing[40]  74
    x[1]      packing[41]  133
    x[1]      packing[43]  6
    x[1]      packing[44]  55
    x[1]      packing[45]  16
    x[1]      packing[46]  83
    x[1]      packing[49]  4
    x[1]      R53       1
    x[2]      OBJ       193
    x[2]      packing[0]  79
    x[2]      packing[1]  113
    x[2]      packing[2]  86
    x[2]      packing[3]  163
    x[2]      packing[4]  128
    x[2]      packing[6]  155
    x[2]      packing[7]  155
    x[2]      packing[8]  174
    x[2]      packing[9]  45
    x[2]      packing[11]  9
    x[2]      packing[12]  34
    x[2]      packing[13]  95
    x[2]      packing[14]  159
    x[2]      packing[15]  49
    x[2]      packing[17]  187
    x[2]      packing[18]  49
    x[2]      packing[19]  90
    x[2]      packing[20]  196
    x[2]      packing[21]  192
    x[2]      packing[22]  20
    x[2]      packing[23]  133
    x[2]      packing[24]  184
    x[2]      packing[25]  135
    x[2]      packing[27]  98
    x[2]      packing[28]  56
    x[2]      packing[29]  197
    x[2]      packing[31]  3
    x[2]      packing[32]  19
    x[2]      packing[33]  120
    x[2]      packing[34]  57
    x[2]      packing[35]  65
    x[2]      packing[37]  18
    x[2]      packing[40]  129
    x[2]      packing[41]  70
    x[2]      packing[44]  69
    x[2]      packing[45]  95
    x[2]      packing[46]  141
    x[2]      packing[47]  70
    x[2]      packing[48]  88
    x[2]      R53       1
    x[3]      OBJ       6
    x[3]      packing[0]  25
    x[3]      packing[1]  4
    x[3]      packing[2]  101
    x[3]      packing[3]  63
    x[3]      packing[6]  124
    x[3]      packing[7]  6
    x[3]      packing[8]  41
    x[3]      packing[9]  46
    x[3]      packing[10]  65
    x[3]      packing[11]  89
    x[3]      packing[12]  52
    x[3]      packing[13]  95
    x[3]      packing[16]  38
    x[3]      packing[17]  26
    x[3]      packing[18]  152
    x[3]      packing[19]  71
    x[3]      packing[20]  62
    x[3]      packing[21]  95
    x[3]      packing[23]  43
    x[3]      packing[24]  16
    x[3]      packing[25]  132
    x[3]      packing[28]  128
    x[3]      packing[29]  179
    x[3]      packing[30]  19
    x[3]      packing[31]  141
    x[3]      packing[33]  86
    x[3]      packing[34]  29
    x[3]      packing[35]  193
    x[3]      packing[36]  158
    x[3]      packing[37]  60
    x[3]      packing[38]  199
    x[3]      packing[42]  42
    x[3]      packing[43]  15
    x[3]      packing[44]  88
    x[3]      packing[47]  133
    x[3]      packing[48]  162
    x[3]      packing[49]  59
    x[4]      OBJ       139
    x[4]      packing[1]  81
    x[4]      packing[2]  133
    x[4]      packing[3]  191
    x[4]      packing[4]  162
    x[4]      packing[5]  159
    x[4]      packing[6]  178
    x[4]      packing[7]  22
    x[4]      packing[8]  23
    x[4]      packing[9]  169
    x[4]      packing[10]  192
    x[4]      packing[12]  104
    x[4]      packing[14]  116
    x[4]      packing[15]  168
    x[4]      packing[16]  61
    x[4]      packing[17]  10
    x[4]      packing[18]  22
    x[4]      packing[20]  3
    x[4]      packing[21]  130
    x[4]      packing[22]  191
    x[4]      packing[23]  1
    x[4]      packing[25]  61
    x[4]      packing[26]  58
    x[4]      packing[27]  74
    x[4]      packing[28]  146
    x[4]      packing[29]  36
    x[4]      packing[31]  46
    x[4]      packing[32]  163
    x[4]      packing[33]  38
    x[4]      packing[34]  27
    x[4]      packing[35]  89
    x[4]      packing[36]  159
    x[4]      packing[37]  29
    x[4]      packing[38]  75
    x[4]      packing[39]  76
    x[4]      packing[41]  41
    x[4]      packing[42]  76
    x[4]      packing[43]  193
    x[4]      packing[45]  1
    x[4]      packing[47]  181
    x[4]      R53       1
    x[5]      OBJ       143
    x[5]      packing[0]  151
    x[5]      packing[1]  8
    x[5]      packing[2]  108
    x[5]      packing[3]  88
    x[5]      packing[4]  156
    x[5]      packing[6]  108
    x[5]      packing[7]  40
    x[5]      packing[8]  123
    x[5]      packing[9]  186
    x[5]      packing[11]  92
    x[5]      packing[12]  40
    x[5]      packing[13]  94
    x[5]      packing[14]  5
    x[5]      packing[16]  34
    x[5]      packing[17]  45
    x[5]      packing[18]  148
    x[5]      packing[20]  175
    x[5]      packing[22]  29
    x[5]      packing[23]  192
    x[5]      packing[26]  40
    x[5]      packing[29]  187
    x[5]      packing[30]  57
    x[5]      packing[31]  167
    x[5]      packing[32]  77
    x[5]      packing[34]  140
    x[5]      packing[35]  12
    x[5]      packing[36]  40
    x[5]      packing[38]  21
    x[5]      packing[39]  173
    x[5]      packing[40]  100
    x[5]      packing[41]  134
    x[5]      packing[42]  120
    x[5]      packing[43]  142
    x[5]      packing[45]  93
    x[5]      packing[47]  27
    x[5]      packing[49]  8
    x[5]      R53       1
    x[6]      OBJ       96
    x[6]      packing[0]  152
    x[6]      packing[1]  15
    x[6]      packing[2]  88
    x[6]      packing[4]  183
    x[6]      packing[6]  90
    x[6]      packing[7]  12
    x[6]      packing[8]  29
    x[6]      packing[9]  110
    x[6]      packing[11]  61
    x[6]      packing[12]  48
    x[6]      packing[13]  74
    x[6]      packing[14]  129
    x[6]      packing[15]  79
    x[6]      packing[16]  112
    x[6]      packing[17]  187
    x[6]      packing[18]  14
    x[6]      packing[19]  92
    x[6]      packing[21]  76
    x[6]      packing[22]  180
    x[6]      packing[23]  174
    x[6]      packing[24]  181
    x[6]      packing[26]  85
    x[6]      packing[27]  31
    x[6]      packing[30]  125
    x[6]      packing[32]  139
    x[6]      packing[33]  94
    x[6]      packing[34]  75
    x[6]      packing[35]  19
    x[6]      packing[36]  3
    x[6]      packing[38]  160
    x[6]      packing[39]  36
    x[6]      packing[40]  49
    x[6]      packing[41]  176
    x[6]      packing[43]  33
    x[6]      packing[45]  168
    x[6]      packing[47]  187
    x[6]      packing[48]  88
    x[6]      packing[49]  31
    x[7]      OBJ       181
    x[7]      packing[0]  38
    x[7]      packing[1]  118
    x[7]      packing[2]  164
    x[7]      packing[3]  24
    x[7]      packing[4]  81
    x[7]      packing[8]  19
    x[7]      packing[10]  12
    x[7]      packing[12]  104
    x[7]      packing[13]  113
    x[7]      packing[14]  70
    x[7]      packing[15]  119
    x[7]      packing[16]  13
    x[7]      packing[17]  153
    x[7]      packing[18]  88
    x[7]      packing[19]  171
    x[7]      packing[21]  37
    x[7]      packing[22]  178
    x[7]      packing[24]  4
    x[7]      packing[27]  12
    x[7]      packing[30]  24
    x[7]      packing[31]  180
    x[7]      packing[34]  143
    x[7]      packing[35]  69
    x[7]      packing[36]  156
    x[7]      packing[38]  12
    x[7]      packing[39]  127
    x[7]      packing[40]  156
    x[7]      packing[41]  93
    x[7]      packing[43]  176
    x[7]      packing[44]  197
    x[7]      packing[45]  144
    x[7]      packing[48]  158
    x[7]      packing[49]  122
    x[8]      OBJ       5
    x[8]      packing[0]  59
    x[8]      packing[1]  139
    x[8]      packing[2]  111
    x[8]      packing[3]  116
    x[8]      packing[4]  61
    x[8]      packing[6]  88
    x[8]      packing[7]  178
    x[8]      packing[8]  1
    x[8]      packing[9]  60
    x[8]      packing[10]  159
    x[8]      packing[11]  124
    x[8]      packing[12]  81
    x[8]      packing[13]  34
    x[8]      packing[14]  58
    x[8]      packing[15]  149
    x[8]      packing[17]  79
    x[8]      packing[18]  5
    x[8]      packing[19]  32
    x[8]      packing[20]  3
    x[8]      packing[23]  37
    x[8]      packing[24]  52
    x[8]      packing[26]  133
    x[8]      packing[27]  115
    x[8]      packing[28]  190
    x[8]      packing[29]  27
    x[8]      packing[31]  64
    x[8]      packing[33]  48
    x[8]      packing[34]  136
    x[8]      packing[35]  198
    x[8]      packing[36]  56
    x[8]      packing[38]  117
    x[8]      packing[39]  99
    x[8]      packing[40]  73
    x[8]      packing[41]  18
    x[8]      packing[43]  169
    x[8]      packing[44]  99
    x[8]      packing[46]  168
    x[8]      packing[47]  106
    x[8]      packing[48]  14
    x[8]      packing[49]  92
    x[9]      OBJ       97
    x[9]      packing[0]  90
    x[9]      packing[1]  47
    x[9]      packing[4]  174
    x[9]      packing[5]  134
    x[9]      packing[6]  29
    x[9]      packing[8]  96
    x[9]      packing[9]  55
    x[9]      packing[10]  168
    x[9]      packing[11]  195
    x[9]      packing[13]  132
    x[9]      packing[14]  149
    x[9]      packing[15]  181
    x[9]      packing[17]  116
    x[9]      packing[18]  77
    x[9]      packing[22]  75
    x[9]      packing[25]  116
    x[9]      packing[26]  137
    x[9]      packing[27]  126
    x[9]      packing[28]  152
    x[9]      packing[29]  119
    x[9]      packing[30]  81
    x[9]      packing[31]  4
    x[9]      packing[32]  29
    x[9]      packing[33]  140
    x[9]      packing[34]  70
    x[9]      packing[35]  37
    x[9]      packing[38]  82
    x[9]      packing[39]  118
    x[9]      packing[40]  187
    x[9]      packing[41]  61
    x[9]      packing[42]  163
    x[9]      packing[44]  82
    x[9]      packing[46]  190
    x[9]      packing[47]  120
    x[9]      packing[48]  45
    x[9]      packing[49]  51
    x[10]     OBJ       64
    x[10]     packing[0]  102
    x[10]     packing[3]  69
    x[10]     packing[4]  20
    x[10]     packing[6]  154
    x[10]     packing[10]  108
    x[10]     packing[11]  16
    x[10]     packing[12]  73
    x[10]     packing[13]  120
    x[10]     packing[14]  9
    x[10]     packing[15]  121
    x[10]     packing[19]  5
    x[10]     packing[21]  104
    x[10]     packing[22]  40
    x[10]     packing[23]  119
    x[10]     packing[25]  192
    x[10]     packing[26]  165
    x[10]     packing[27]  132
    x[10]     packing[28]  116
    x[10]     packing[29]  140
    x[10]     packing[30]  179
    x[10]     packing[31]  76
    x[10]     packing[32]  1
    x[10]     packing[33]  154
    x[10]     packing[35]  121
    x[10]     packing[36]  190
    x[10]     packing[37]  154
    x[10]     packing[38]  153
    x[10]     packing[42]  193
    x[10]     packing[45]  198
    x[10]     packing[47]  87
    x[10]     packing[48]  73
    x[10]     packing[49]  150
    x[11]     OBJ       132
    x[11]     packing[0]  11
    x[11]     packing[1]  72
    x[11]     packing[2]  134
    x[11]     packing[5]  160
    x[11]     packing[8]  130
    x[11]     packing[9]  126
    x[11]     packing[11]  29
    x[11]     packing[13]  154
    x[11]     packing[14]  190
    x[11]     packing[15]  189
    x[11]     packing[17]  145
    x[11]     packing[18]  146
    x[11]     packing[19]  82
    x[11]     packing[20]  156
    x[11]     packing[22]  71
    x[11]     packing[23]  47
    x[11]     packing[24]  24
    x[11]     packing[25]  116
    x[11]     packing[26]  142
    x[11]     packing[27]  10
    x[11]     packing[28]  199
    x[11]     packing[30]  79
    x[11]     packing[32]  154
    x[11]     packing[33]  191
    x[11]     packing[34]  177
    x[11]     packing[35]  79
    x[11]     packing[36]  110
    x[11]     packing[38]  61
    x[11]     packing[39]  193
    x[11]     packing[40]  135
    x[11]     packing[41]  110
    x[11]     packing[42]  185
    x[11]     packing[43]  61
    x[11]     packing[44]  180
    x[11]     packing[45]  98
    x[11]     packing[47]  113
    x[11]     packing[48]  122
    x[11]     packing[49]  87
    x[11]     R53       1
    x[12]     OBJ       78
    x[12]     packing[1]  60
    x[12]     packing[2]  93
    x[12]     packing[3]  50
    x[12]     packing[4]  122
    x[12]     packing[5]  125
    x[12]     packing[6]  122
    x[12]     packing[7]  28
    x[12]     packing[8]  181
    x[12]     packing[9]  12
    x[12]     packing[10]  61
    x[12]     packing[11]  157
    x[12]     packing[12]  183
    x[12]     packing[13]  189
    x[12]     packing[14]  34
    x[12]     packing[16]  93
    x[12]     packing[17]  165
    x[12]     packing[18]  42
    x[12]     packing[19]  27
    x[12]     packing[20]  196
    x[12]     packing[21]  152
    x[12]     packing[22]  74
    x[12]     packing[28]  68
    x[12]     packing[29]  192
    x[12]     packing[30]  37
    x[12]     packing[31]  102
    x[12]     packing[32]  118
    x[12]     packing[33]  191
    x[12]     packing[34]  165
    x[12]     packing[36]  127
    x[12]     packing[37]  23
    x[12]     packing[38]  192
    x[12]     packing[39]  98
    x[12]     packing[40]  132
    x[12]     packing[41]  95
    x[12]     packing[42]  152
    x[12]     packing[43]  118
    x[12]     packing[44]  168
    x[12]     packing[45]  36
    x[12]     packing[46]  9
    x[12]     packing[47]  28
    x[12]     packing[48]  101
    x[12]     packing[49]  136
    x[13]     OBJ       69
    x[13]     packing[0]  62
    x[13]     packing[2]  189
    x[13]     packing[3]  147
    x[13]     packing[4]  15
    x[13]     packing[5]  3
    x[13]     packing[7]  93
    x[13]     packing[8]  124
    x[13]     packing[9]  174
    x[13]     packing[10]  1
    x[13]     packing[12]  151
    x[13]     packing[13]  59
    x[13]     packing[15]  132
    x[13]     packing[16]  103
    x[13]     packing[17]  92
    x[13]     packing[18]  136
    x[13]     packing[19]  53
    x[13]     packing[20]  25
    x[13]     packing[21]  20
    x[13]     packing[22]  76
    x[13]     packing[24]  9
    x[13]     packing[26]  10
    x[13]     packing[27]  183
    x[13]     packing[28]  129
    x[13]     packing[29]  190
    x[13]     packing[30]  115
    x[13]     packing[31]  114
    x[13]     packing[32]  97
    x[13]     packing[34]  145
    x[13]     packing[35]  8
    x[13]     packing[36]  11
    x[13]     packing[37]  179
    x[13]     packing[38]  33
    x[13]     packing[39]  115
    x[13]     packing[42]  126
    x[13]     packing[43]  12
    x[13]     packing[44]  24
    x[13]     packing[45]  115
    x[13]     packing[46]  187
    x[13]     packing[47]  185
    x[13]     packing[48]  148
    x[13]     packing[49]  175
    x[14]     OBJ       4
    x[14]     packing[0]  53
    x[14]     packing[1]  58
    x[14]     packing[2]  145
    x[14]     packing[4]  97
    x[14]     packing[5]  72
    x[14]     packing[6]  141
    x[14]     packing[7]  11
    x[14]     packing[8]  191
    x[14]     packing[9]  62
    x[14]     packing[11]  152
    x[14]     packing[12]  53
    x[14]     packing[13]  6
    x[14]     packing[15]  6
    x[14]     packing[16]  186
    x[14]     packing[17]  45
    x[14]     packing[18]  82
    x[14]     packing[19]  165
    x[14]     packing[20]  97
    x[14]     packing[21]  173
    x[14]     packing[24]  5
    x[14]     packing[25]  53
    x[14]     packing[27]  79
    x[14]     packing[28]  84
    x[14]     packing[29]  167
    x[14]     packing[32]  94
    x[14]     packing[33]  114
    x[14]     packing[34]  58
    x[14]     packing[35]  18
    x[14]     packing[36]  55
    x[14]     packing[37]  70
    x[14]     packing[38]  148
    x[14]     packing[39]  105
    x[14]     packing[40]  25
    x[14]     packing[41]  116
    x[14]     packing[42]  37
    x[14]     packing[44]  118
    x[14]     packing[45]  110
    x[14]     packing[46]  2
    x[14]     packing[47]  30
    x[14]     packing[48]  177
    x[14]     packing[49]  35
    x[15]     OBJ       175
    x[15]     packing[0]  180
    x[15]     packing[2]  49
    x[15]     packing[4]  133
    x[15]     packing[5]  93
    x[15]     packing[7]  169
    x[15]     packing[8]  89
    x[15]     packing[12]  168
    x[15]     packing[13]  184
    x[15]     packing[14]  34
    x[15]     packing[15]  136
    x[15]     packing[16]  101
    x[15]     packing[17]  75
    x[15]     packing[18]  83
    x[15]     packing[21]  10
    x[15]     packing[22]  93
    x[15]     packing[25]  94
    x[15]     packing[27]  56
    x[15]     packing[28]  181
    x[15]     packing[30]  140
    x[15]     packing[31]  90
    x[15]     packing[32]  125
    x[15]     packing[33]  22
    x[15]     packing[34]  26
    x[15]     packing[35]  69
    x[15]     packing[36]  116
    x[15]     packing[37]  190
    x[15]     packing[38]  100
    x[15]     packing[39]  177
    x[15]     packing[41]  46
    x[15]     packing[43]  33
    x[15]     packing[44]  157
    x[15]     packing[45]  198
    x[15]     packing[46]  101
    x[15]     packing[47]  103
    x[15]     packing[49]  44
    x[16]     OBJ       5
    x[16]     packing[0]  83
    x[16]     packing[1]  38
    x[16]     packing[2]  112
    x[16]     packing[3]  199
    x[16]     packing[4]  2
    x[16]     packing[5]  142
    x[16]     packing[6]  110
    x[16]     packing[7]  181
    x[16]     packing[8]  30
    x[16]     packing[9]  90
    x[16]     packing[10]  101
    x[16]     packing[11]  13
    x[16]     packing[12]  106
    x[16]     packing[13]  37
    x[16]     packing[14]  87
    x[16]     packing[15]  112
    x[16]     packing[17]  98
    x[16]     packing[18]  52
    x[16]     packing[19]  147
    x[16]     packing[20]  196
    x[16]     packing[22]  179
    x[16]     packing[23]  80
    x[16]     packing[25]  116
    x[16]     packing[27]  82
    x[16]     packing[28]  121
    x[16]     packing[29]  130
    x[16]     packing[30]  3
    x[16]     packing[31]  161
    x[16]     packing[34]  169
    x[16]     packing[35]  199
    x[16]     packing[37]  114
    x[16]     packing[38]  50
    x[16]     packing[39]  194
    x[16]     packing[41]  195
    x[16]     packing[42]  11
    x[16]     packing[43]  171
    x[16]     packing[44]  137
    x[16]     packing[45]  22
    x[16]     packing[49]  88
    x[17]     OBJ       149
    x[17]     packing[0]  59
    x[17]     packing[1]  59
    x[17]     packing[2]  140
    x[17]     packing[3]  44
    x[17]     packing[7]  50
    x[17]     packing[9]  22
    x[17]     packing[10]  198
    x[17]     packing[12]  23
    x[17]     packing[13]  187
    x[17]     packing[14]  189
    x[17]     packing[16]  121
    x[17]     packing[17]  195
    x[17]     packing[18]  104
    x[17]     packing[20]  26
    x[17]     packing[21]  96
    x[17]     packing[22]  80
    x[17]     packing[23]  141
    x[17]     packing[24]  161
    x[17]     packing[25]  163
    x[17]     packing[26]  5
    x[17]     packing[30]  189
    x[17]     packing[32]  120
    x[17]     packing[33]  139
    x[17]     packing[34]  50
    x[17]     packing[35]  28
    x[17]     packing[36]  165
    x[17]     packing[39]  110
    x[17]     packing[40]  23
    x[17]     packing[41]  182
    x[17]     packing[42]  134
    x[17]     packing[43]  54
    x[17]     packing[44]  189
    x[17]     packing[45]  15
    x[17]     packing[46]  12
    x[17]     packing[47]  50
    x[17]     packing[49]  27
    x[17]     R53       1
    x[18]     OBJ       26
    x[18]     packing[0]  180
    x[18]     packing[2]  117
    x[18]     packing[3]  184
    x[18]     packing[4]  86
    x[18]     packing[11]  113
    x[18]     packing[14]  181
    x[18]     packing[15]  124
    x[18]     packing[16]  40
    x[18]     packing[17]  4
    x[18]     packing[18]  170
    x[18]     packing[21]  88
    x[18]     packing[22]  21
    x[18]     packing[23]  143
    x[18]     packing[24]  127
    x[18]     packing[25]  40
    x[18]     packing[26]  16
    x[18]     packing[27]  89
    x[18]     packing[29]  129
    x[18]     packing[30]  30
    x[18]     packing[32]  166
    x[18]     packing[34]  59
    x[18]     packing[35]  111
    x[18]     packing[36]  95
    x[18]     packing[37]  191
    x[18]     packing[38]  4
    x[18]     packing[39]  126
    x[18]     packing[40]  71
    x[18]     packing[41]  6
    x[18]     packing[45]  144
    x[18]     packing[46]  91
    x[18]     packing[47]  72
    x[18]     packing[48]  65
    x[18]     packing[49]  114
    x[19]     OBJ       104
    x[19]     packing[0]  120
    x[19]     packing[1]  38
    x[19]     packing[2]  17
    x[19]     packing[3]  111
    x[19]     packing[4]  105
    x[19]     packing[5]  89
    x[19]     packing[6]  182
    x[19]     packing[7]  166
    x[19]     packing[8]  19
    x[19]     packing[9]  71
    x[19]     packing[10]  50
    x[19]     packing[12]  97
    x[19]     packing[13]  113
    x[19]     packing[14]  126
    x[19]     packing[16]  174
    x[19]     packing[18]  120
    x[19]     packing[21]  168
    x[19]     packing[23]  76
    x[19]     packing[24]  160
    x[19]     packing[27]  70
    x[19]     packing[28]  178
    x[19]     packing[30]  194
    x[19]     packing[33]  59
    x[19]     packing[34]  7
    x[19]     packing[35]  10
    x[19]     packing[36]  10
    x[19]     packing[37]  144
    x[19]     packing[38]  23
    x[19]     packing[39]  160
    x[19]     packing[40]  132
    x[19]     packing[41]  75
    x[19]     packing[42]  22
    x[19]     packing[43]  115
    x[19]     packing[46]  37
    x[19]     packing[47]  139
    x[19]     packing[48]  192
    x[19]     packing[49]  195
    x[20]     OBJ       6
    x[20]     packing[0]  127
    x[20]     packing[1]  42
    x[20]     packing[5]  115
    x[20]     packing[6]  131
    x[20]     packing[7]  103
    x[20]     packing[10]  88
    x[20]     packing[12]  158
    x[20]     packing[13]  137
    x[20]     packing[17]  115
    x[20]     packing[20]  120
    x[20]     packing[22]  23
    x[20]     packing[23]  123
    x[20]     packing[24]  73
    x[20]     packing[25]  149
    x[20]     packing[27]  56
    x[20]     packing[28]  44
    x[20]     packing[29]  166
    x[20]     packing[30]  110
    x[20]     packing[32]  20
    x[20]     packing[34]  88
    x[20]     packing[36]  79
    x[20]     packing[39]  151
    x[20]     packing[41]  106
    x[20]     packing[42]  152
    x[20]     packing[43]  92
    x[20]     packing[44]  175
    x[20]     packing[46]  67
    x[20]     packing[47]  111
    x[20]     packing[48]  94
    x[20]     packing[49]  11
    MARKER    'MARKER'                 'INTEND'
RHS
    RHS1      packing[0]  786
    RHS1      packing[1]  465
    RHS1      packing[2]  900
    RHS1      packing[3]  808
    RHS1      packing[4]  822
    RHS1      packing[5]  546
    RHS1      packing[6]  863
    RHS1      packing[7]  618
    RHS1      packing[8]  712
    RHS1      packing[9]  701
    RHS1      packing[10]  658
    RHS1      packing[11]  526
    RHS1      packing[12]  780
    RHS1      packing[13]  962
    RHS1      packing[14]  791
    RHS1      packing[15]  805
    RHS1      packing[16]  596
    RHS1      packing[17]  869
    RHS1      packing[18]  832
    RHS1      packing[19]  468
    RHS1      packing[20]  628
    RHS1      packing[21]  702
    RHS1      packing[22]  724
    RHS1      packing[23]  655
    RHS1      packing[24]  559
    RHS1      packing[25]  684
    RHS1      packing[26]  442
    RHS1      packing[27]  607
    RHS1      packing[28]  944
    RHS1      packing[29]  935
    RHS1      packing[30]  691
    RHS1      packing[31]  633
    RHS1      packing[32]  718
    RHS1      packing[33]  781
    RHS1      packing[34]  872
    RHS1      packing[35]  755
    RHS1      packing[36]  850
    RHS1      packing[37]  586
    RHS1      packing[38]  808
    RHS1      packing[39]  1088
    RHS1      packing[40]  643
    RHS1      packing[41]  829
    RHS1      packing[42]  707
    RHS1      packing[43]  695
    RHS1      packing[44]  869
    RHS1      packing[45]  727
    RHS1      packing[46]  544
    RHS1      packing[47]  871
    RHS1      packing[48]  764
    RHS1      packing[49]  715
    RHS1      R53       5
BOUNDS
 BV BND1      x[1]    
 BV BND1      x[2]    
 BV BND1      x[3]    
 BV BND1      x[4]    
 BV BND1      x[5]    
 BV BND1      x[6]    
 BV BND1      x[7]    
 BV BND1      x[8]    
 BV BND1      x[9]    
 BV BND1      x[10]   
 BV BND1      x[11]   
 BV BND1      x[12]   
 BV BND1      x[13]   
 BV BND1      x[14]   
 BV BND1      x[15]   
 BV BND1      x[16]   
 BV BND1      x[17]   
 BV BND1      x[18]   
 BV BND1      x[19]   
 BV BND1      x[20]   
ENDATA
